GLPSOL: GLPK LP/MIP Solver, v4.65
Parameter(s) specified in the command line:
 -m production-orders.mod -d production-orders-A.dat --log production-orders-A.log
Reading model section from production-orders.mod...
68 lines were read
Reading data section from production-orders-A.dat...
40 lines were read
Checking (line 6)...
Generating Material_Balance_Production...
Generating Material_Balance_Orders...
Generating Material_Balance_Total_Raws_1...
Generating Material_Balance_Total_Raws_2...
Generating Material_Balance_Total_Products_1...
Generating Material_Balance_Total_Products_2...
Generating Total_Costs_Calc...
Generating Total_Revenue_Calc...
Generating Profit_Calc...
Generating Profit...
Model has been successfully generated
GLPK Simplex Optimizer, v4.65
32 rows, 38 columns, 80 non-zeros
Preprocessing...
11 rows, 12 columns, 29 non-zeros
Scaling...
 A: min|aij| =  1.300e-02  max|aij| =  4.500e+03  ratio =  3.462e+05
GM: min|aij| =  4.317e-01  max|aij| =  2.317e+00  ratio =  5.367e+00
EQ: min|aij| =  1.863e-01  max|aij| =  1.000e+00  ratio =  5.367e+00
Constructing initial basis...
Size of triangular part is 11
      0: obj =   7.300000000e+03 inf =   1.530e+04 (4)
      4: obj =  -4.700000000e+02 inf =   0.000e+00 (0)
*     8: obj =   1.577451613e+03 inf =   0.000e+00 (0)
OPTIMAL LP SOLUTION FOUND
Time used:   0.0 secs
Memory used: 0.2 Mb (159114 bytes)
Total Costs: 20876.4
Total Revenue: 22453.9
Profit: 1577.45
Volume of recipe MakeP1: 25.4839
Volume of recipe MakeP2: 164.516
Volume of recipe MakeP3: 10
Raw materials (orders + market -> production + leftover):
Consumption of raw A: 0 + 13322.6 -> 13322.6 + 0 (total: 13322.6)
Consumption of raw B: 0 + 31000 -> 31000 + 0 (total: 31000)
Consumption of raw C: 0 + 291065 -> 291065 + 0 (total: 291065)
Consumption of raw D: 0 + 200 -> 200 + 0 (total: 200)
Products (production -> orders + market):
Production of product P1: 25.4839 -> 0 + 25.4839 (total: 25.4839)
Production of product P2: 164.516 -> 0 + 164.516 (total: 164.516)
Production of product P3: 10 -> 0 + 10 (total: 10)
Model has been successfully processed
